<?xml version = "1.0" standalone="yes"?>
<!-- This file has been generated by DOcplex version 2.23.222  -->
<CPLEXSolution version="1.0">
 <header
   problemName="CVRP"
   objectiveValue="11745.5"
  />
 <variables>
  <variable name="x_0_1" index="0" value="1.00000"/>
  <variable name="x_0_2" index="1" value="1.00000"/>
  <variable name="x_0_6" index="5" value="1.00000"/>
  <variable name="x_0_7" index="6" value="1.00000"/>
  <variable name="x_0_13" index="12" value="1.00000"/>
  <variable name="x_0_14" index="13" value="1.00000"/>
  <variable name="x_0_15" index="14" value="1.00000"/>
  <variable name="x_0_16" index="15" value="1.00000"/>
  <variable name="x_0_17" index="16" value="1.00000"/>
  <variable name="x_0_18" index="17" value="1.00000"/>
  <variable name="x_0_21" index="20" value="1.00000"/>
  <variable name="x_0_22" index="21" value="1.00000"/>
  <variable name="x_1_9" index="30" value="1.00000"/>
  <variable name="x_2_20" index="63" value="1.00000"/>
  <variable name="x_3_8" index="73" value="1.00000"/>
  <variable name="x_4_0" index="88" value="1.00000"/>
  <variable name="x_5_0" index="110" value="1.00000"/>
  <variable name="x_6_3" index="135" value="1.00000"/>
  <variable name="x_7_0" index="154" value="1.00000"/>
  <variable name="x_8_19" index="194" value="1.00000"/>
  <variable name="x_9_0" index="198" value="1.00000"/>
  <variable name="x_10_0" index="220" value="1.00000"/>
  <variable name="x_11_0" index="242" value="1.00000"/>
  <variable name="x_12_11" index="275" value="1.00000"/>
  <variable name="x_13_0" index="286" value="1.00000"/>
  <variable name="x_14_10" index="318" value="1.00000"/>
  <variable name="x_15_12" index="342" value="1.00000"/>
  <variable name="x_16_0" index="352" value="1.00000"/>
  <variable name="x_17_4" index="378" value="1.00000"/>
  <variable name="x_18_0" index="396" value="1.00000"/>
  <variable name="x_19_0" index="418" value="1.00000"/>
  <variable name="x_20_5" index="445" value="1.00000"/>
  <variable name="x_21_0" index="462" value="1.00000"/>
  <variable name="x_22_0" index="484" value="1.00000"/>
  <variable name="u_1" index="506" value="28.00000"/>
  <variable name="u_2" index="507" value="25.00000"/>
  <variable name="u_3" index="508" value="27.00000"/>
  <variable name="u_4" index="509" value="47.00000"/>
  <variable name="u_5" index="510" value="33.00000"/>
  <variable name="u_6" index="511" value="2.00000"/>
  <variable name="u_7" index="512" value="46.00000"/>
  <variable name="u_8" index="513" value="32.00000"/>
  <variable name="u_9" index="514" value="47.00000"/>
  <variable name="u_10" index="515" value="47.00000"/>
  <variable name="u_11" index="516" value="47.00000"/>
  <variable name="u_12" index="517" value="38.00000"/>
  <variable name="u_13" index="518" value="32.00000"/>
  <variable name="u_14" index="519" value="8.00000"/>
  <variable name="u_15" index="520" value="22.00000"/>
  <variable name="u_16" index="521" value="47.00000"/>
  <variable name="u_17" index="522" value="4.00000"/>
  <variable name="u_18" index="523" value="35.00000"/>
  <variable name="u_19" index="524" value="46.00000"/>
  <variable name="u_20" index="525" value="28.00000"/>
  <variable name="u_21" index="526" value="46.00000"/>
  <variable name="u_22" index="527" value="46.00000"/>
 </variables>
</CPLEXSolution>
